(set-logic QF_S)
(set-option :strings-exp true)
(set-option :produce-models true)
(declare-fun sigmaStar_0 () String)
(declare-fun literal_6 () String)
(assert (= literal_6 "\x3c\x74\x72\x20\x76\x61\x6c\x69\x67\x6e\x3d\x22\x74\x6f\x70\x22\x3e\x3c\x74\x64\x20\x63\x6c\x61\x73\x73\x3d\x22\x77\x6f\x72\x6b\x73\x68\x6f\x70\x61\x73\x73\x65\x73\x73\x6d\x65\x6e\x74\x68\x65\x61\x64\x69\x6e\x67\x22\x3e\x3c\x70\x3e\x3c\x62\x3e\x63\x6f\x6d\x6d\x65\x6e\x74\x62\x79\x20"))
(assert (str.in.re literal_6 (re.++ (re.* re.allchar) (re.++ (str.to.re "\x5c\x3c\x53\x43\x52\x49\x50\x54") (re.* re.allchar)))))
(check-sat)
(get-model)
